[ 0. 26. 17.  6. 15.  7.  5. 15. 16. 17.  1. 21. 66. 25. 16. 11.  7. 17.
 17. 22. 10. 25. 16.  7. 21. 11. 21. 11. 21. 22. 25.  2. 22. 34. 45. 70.
 81. 85. 59. 45. 50. 80. 75. 25.  9.  1. 50. 35. 71.  1. 25. 45. 45. 66.
 11. 81. 85. 75. 15. 90. 15. 31. 10.  6. 51. 26.  0. 26. 17.  6. 15.  7.
  5. 15. 16. 17.  1. 21. 66. 25. 16. 11.  7. 17. 17. 22. 10. 25. 16.  7.
 21. 11. 21. 11. 21. 22. 25.  2. 22.]